Results/Experiment 1 Results/Existing Benchmark/RES_60/i-60-100-15.txt
solutions: 0 nodes: 1  modelTime: 111  solveTime: 19  totalTime: 136  modelSize: 7853  readTime: 5 matchingSize: 0
