Results/Experiment 2 Results/Existing Benchmark/i-60-100-15.lp
clingo version 5.4.0
Reading from tempSRTISolver.lp ...
Solving...
UNSATISFIABLE

Models       : 0
Calls        : 1
Time         : 7.183s (Solving: 0.48s 1st Model: 0.00s Unsat: 0.48s)
CPU Time     : 7.175s
